c Random generated cnf formula, satisfiable: true
p cnf 10 50
6 -8 -3 0
-2 7 4 0
-5 7 -6 0
5 6 3 0
3 -6 9 0
-6 -7 9 0
-5 -1 4 0
-3 -10 -6 0
-5 -10 8 0
5 -3 7 0
2 6 -3 0
8 5 10 0
7 -5 -8 0
-4 10 8 0
5 8 4 0
5 -3 -2 0
1 -9 -3 0
-5 -3 -1 0
-10 -2 -6 0
-7 2 -4 0
-10 7 1 0
-3 5 -1 0
-6 8 4 0
8 -2 -4 0
7 10 -1 0
5 -3 2 0
3 -9 1 0
9 5 -6 0
-3 -6 -10 0
-10 -6 1 0
-10 -5 -7 0
-5 -1 -4 0
-4 1 3 0
8 1 -6 0
-9 8 -10 0
-2 5 -9 0
7 4 -3 0
-3 -6 9 0
-10 -4 5 0
6 5 -7 0
3 -2 -10 0
4 -7 -1 0
-7 -9 -3 0
-3 6 5 0
10 -7 -9 0
7 -8 -10 0
9 -1 -4 0
-4 -10 3 0
5 -2 3 0
3 -1 8 0
